2
18
88 49
294 294
196 58
322 171
306 178
83 235
33 238
19 26
237 270
24 64
95 221
233 257
13 57
42 262
161 140
151 115
295 162
121 149
18
138 200
103 197
97 110
2 174
106 212
190 219
182 315
166 67
231 316
50 228
184 12
318 269
13 112
154 259
113 139
153 316
121 159
119 137
